NAME : pr124cut50
COMMENT : 124-city problem (Padberg/Rinaldi)
TYPE : TSP
DIMENSION : 124
EDGE_WEIGHT_TYPE : EUC_2D
NODE_COORD_SECTION
1 4475 8657
2 4475 8969
3 4475 9407
4 4475 9719
5 5450 10475
6 5475 9750
7 5475 8650
8 4575 8425
9 5425 3300
10 5425 3000
11 5425 2400
12 5425 2100
13 5425 1800
14 6000 2375
15 6375 2375
16 6000 3375
17 6375 3375
18 6475 4675
19 6475 4875
20 6475 5275
21 6475 5475
22 6100 6675
23 6350 6675
24 6350 7275
25 6100 7275
26 6550 7625
27 5775 8650
28 6075 8650
29 6375 8650
30 6375 9750
31 6075 9750
32 5775 9750
33 6975 9750
34 6675 9750
35 6675 8650
36 6875 8650
37 6850 7275
38 6600 7275
39 6600 6675
40 6850 6675
41 7100 5425
42 7100 5275
43 7100 5075
44 7100 4875
45 7100 4675
46 6925 3300
47 6925 3000
48 6925 2700
49 6925 2400
50 6925 2100
EOF
